Route #1: 8 9 1 10 15 27 20 19 39 44 52 53 54 64 70 58 63 75 84 89 97 90 85 76 65 59 45 40 41 29 28 21 16 2 3 17 22 32 33 34 30 18 4 5 6 11 12 24 25 13 7 14 26 31 43 38 42 50 51 62 69 83 88 96 100 99 95 87 82 74 73 61 72 81 94 93 80 79 78 92 98 91 86 77 66 71 67 55 46 47 56 60 68 57 48 49 37 36 35 23
Cost 45914
